# SCIP version 3.0.2.1

detection/emphfast/enabled = TRUE
detection/smartscore/enabled = FALSE
detection/detectors/hrgpartition/overruleemphasis = TRUE
detection/detectors/hrgpartition/maxnblockcandidates = 1